Set parameter TokenServer to value "opt-license.discovery.wisc.edu"
Set parameter TimeLimit to value 1800
Gurobi Optimizer version 9.5.1 build v9.5.1rc2 (linux64)
Thread count: 40 physical cores, 80 logical processors, using up to 32 threads
Optimize a model with 8803 rows, 12960 columns and 47094 nonzeros
Model fingerprint: 0x3c944cd9
Variable types: 10044 continuous, 2916 integer (2916 binary)
Coefficient statistics:
  Matrix range     [1e+00, 1e+03]
  Objective range  [1e+00, 9e+00]
  Bounds range     [1e+00, 1e+00]
  RHS range        [1e+00, 6e+00]
Presolve removed 108 rows and 186 columns
Presolve time: 0.20s
Presolved: 8695 rows, 12774 columns, 46714 nonzeros
Variable types: 9858 continuous, 2916 integer (2916 binary)

Root relaxation: objective 5.960265e+01, 1222 iterations, 0.12 seconds (0.06 work units)

    Nodes    |    Current Node    |     Objective Bounds      |     Work
 Expl Unexpl |  Obj  Depth IntInf | Incumbent    BestBd   Gap | It/Node Time

     0     0   59.60265    0   53          -   59.60265      -     -    0s
H    0     0                      77.5559809   59.60265  23.1%     -    0s
     0     0   60.41605    0   32   77.55598   60.41605  22.1%     -    0s
H    0     0                      61.2285432   60.41605  1.33%     -    1s
     0     0   60.53193    0   46   61.22854   60.53193  1.14%     -    1s
     0     0   60.53193    0   39   61.22854   60.53193  1.14%     -    1s
     0     0   60.63395    0   51   61.22854   60.63395  0.97%     -    1s
     0     0   60.72299    0   48   61.22854   60.72299  0.83%     -    1s
     0     0   60.72299    0   20   61.22854   60.72299  0.83%     -    1s
     0     0   61.12165    0    4   61.22854   61.12165  0.17%     -    1s
     0     0   61.13020    0    4   61.22854   61.13020  0.16%     -    1s

Cutting planes:
  Gomory: 2
  Lift-and-project: 1
  Clique: 1
  MIR: 1
  StrongCG: 3
  GUB cover: 1

Explored 1 nodes (2258 simplex iterations) in 1.73 seconds (0.74 work units)
Thread count was 32 (of 80 available processors)

Solution count 2: 61.2285 77.556 

Optimal solution found (tolerance 1.00e-04)
Best objective 6.122854315746e+01, best bound 6.122854315746e+01, gap 0.0000%
